WARNING: for repeatability, setting FPU to use double precision
============================[ Problem Statistics ]=============================
|                                                                             |
|  Number of variables:      12892978                                         |
|  Number of clauses:        34168737                                         |
|  Parse time:                   8.06 s                                       |
|                                                                             |
c ============================[ Search Statistics ]==============================
c | Conflicts |          ORIGINAL         |          LEARNT          | Progress |
c |           |    Vars  Clauses Literals |    Limit  Clauses Lit/Cl |          |
c ===============================================================================
We had 743 decisions of which only 0 were on extended
c ===============================================================================
restarts                  : 24
conflicts                 : 8314           (2 /sec)
decisions                 : 805660642      (0.00 % random) (231036 /sec)
propagations              : 21590410226    (6191401 /sec)
conflict literals         : 40025          (7.32 % deleted)

conflicts w/ DIP found    : 6609           (79.49 % of conflicts)
conflicts w/ dangerous DIP: 0              (0.00 % of conflicts)
conflicts w/ DIP-learning : 0              (0.00 % of conflicts)
decisions on ext vars     : 0              (0.00 % of decisions)
total ext vars            : 0           
tried delete ext vars     : 0           
deleted ext vars          : 0           
max ext vars              : 0           

Memory used               : 5466.00 MB
CPU time                  : 3487.16 s
DIP computation time      : 0.089114 s (0.00 % of total time)
ER_sel time               : 0.011275 s
ER_add time               : 0 s
ER_delC time              : 0 s
ER_delV time              : 0 s
ER_sub time               : 0.024167 s
ER_stat time              : 0 s

INDETERMINATE
